p cnf 155 611
c p weight 6 -1 0
c p weight -6 1 0
c p weight 8 6.12323399573676603586882014729198302312846062338790031898128063403419218957424163818359375E-17 0
c p weight -8 1 0
c p weight 9 1 0
c p weight -9 1 0
c p weight 10 -1 0
c p weight -10 1 0
c p weight 12 -1 0
c p weight -12 1 0
c p weight 14 -0.416146836547142406903532219075714237987995147705078125 0
c p weight -14 1 0
c p weight 15 0.9092974268256817094169264237280003726482391357421875 0
c p weight -15 1 0
c p weight 16 -1 0
c p weight -16 1 0
c p weight 18 -1 0
c p weight -18 1 0
c p weight 20 6.12323399573676603586882014729198302312846062338790031898128063403419218957424163818359375E-17 0
c p weight -20 1 0
c p weight 21 1 0
c p weight -21 1 0
c p weight 22 -1 0
c p weight -22 1 0
c p weight 24 -1 0
c p weight -24 1 0
c p weight 26 -0.416146836547142406903532219075714237987995147705078125 0
c p weight -26 1 0
c p weight 27 0.9092974268256817094169264237280003726482391357421875 0
c p weight -27 1 0
c p weight 28 -1 0
c p weight -28 1 0
c p weight 31 -1 0
c p weight -31 1 0
c p weight 33 -0.9684306916316953728340877205482684075832366943359375 0
c p weight -33 1 0
c p weight 34 0.249282962726609602643890184481278993189334869384765625 0
c p weight -34 1 0
c p weight 35 -1 0
c p weight -35 1 0
c p weight 38 -1 0
c p weight -38 1 0
c p weight 40 -1 0
c p weight -40 1 0
c p weight 42 6.12323399573676603586882014729198302312846062338790031898128063403419218957424163818359375E-17 0
c p weight -42 1 0
c p weight 43 1 0
c p weight -43 1 0
c p weight 44 -1 0
c p weight -44 1 0
c p weight 46 -1 0
c p weight -46 1 0
c p weight 48 -0.416146836547142406903532219075714237987995147705078125 0
c p weight -48 1 0
c p weight 49 0.9092974268256817094169264237280003726482391357421875 0
c p weight -49 1 0
c p weight 50 -1 0
c p weight -50 1 0
c p weight 52 -1 0
c p weight -52 1 0
c p weight 54 6.12323399573676603586882014729198302312846062338790031898128063403419218957424163818359375E-17 0
c p weight -54 1 0
c p weight 55 1 0
c p weight -55 1 0
c p weight 56 -1 0
c p weight -56 1 0
c p weight 58 -1 0
c p weight -58 1 0
c p weight 60 -0.416146836547142406903532219075714237987995147705078125 0
c p weight -60 1 0
c p weight 61 0.9092974268256817094169264237280003726482391357421875 0
c p weight -61 1 0
c p weight 62 -1 0
c p weight -62 1 0
c p weight 65 -1 0
c p weight -65 1 0
c p weight 67 -0.9684306916316953728340877205482684075832366943359375 0
c p weight -67 1 0
c p weight 68 0.249282962726609602643890184481278993189334869384765625 0
c p weight -68 1 0
c p weight 69 -1 0
c p weight -69 1 0
c p weight 72 -1 0
c p weight -72 1 0
c p weight 74 1 0
c p weight -74 1 0
c p weight 75 0 0
c p weight -75 1 0
c p weight 76 -1 0
c p weight -76 1 0
c p weight 78 6.12323399573676603586882014729198302312846062338790031898128063403419218957424163818359375E-17 0
c p weight -78 1 0
c p weight 79 1 0
c p weight -79 1 0
c p weight 80 -1 0
c p weight -80 1 0
c p weight 82 -0.9980980334074784909859090475947596132755279541015625 0
c p weight -82 1 0
c p weight 83 -0.0616467007075314488151462910536793060600757598876953125 0
c p weight -83 1 0
c p weight 84 -1 0
c p weight -84 1 0
c p weight 86 6.12323399573676603586882014729198302312846062338790031898128063403419218957424163818359375E-17 0
c p weight -86 1 0
c p weight 87 1 0
c p weight -87 1 0
c p weight 88 -1 0
c p weight -88 1 0
c p weight 90 -1 0
c p weight -90 1 0
c p weight 91 3.673940397442059375002259206809000622711899723162043418511757408850826323032379150390625E-16 0
c p weight -91 1 0
c p weight 92 -1 0
c p weight -92 1 0
c p weight 94 1 0
c p weight -94 1 0
c p weight 95 0 0
c p weight -95 1 0
c p weight 96 -1 0
c p weight -96 1 0
c p weight 98 6.12323399573676603586882014729198302312846062338790031898128063403419218957424163818359375E-17 0
c p weight -98 1 0
c p weight 99 1 0
c p weight -99 1 0
c p weight 100 -1 0
c p weight -100 1 0
c p weight 102 -0.9961957555388583074318376020528376102447509765625 0
c p weight -102 1 0
c p weight 103 -0.0871436552272350228864894461366930045187473297119140625 0
c p weight -103 1 0
c p weight 104 -1 0
c p weight -104 1 0
c p weight 106 6.12323399573676603586882014729198302312846062338790031898128063403419218957424163818359375E-17 0
c p weight -106 1 0
c p weight 107 1 0
c p weight -107 1 0
c p weight 108 -1 0
c p weight -108 1 0
c p weight 110 -1 0
c p weight -110 1 0
c p weight 111 3.673940397442059375002259206809000622711899723162043418511757408850826323032379150390625E-16 0
c p weight -111 1 0
c p weight 112 -1 0
c p weight -112 1 0
c p weight 115 -1 0
c p weight -115 1 0
c p weight 117 1 0
c p weight -117 1 0
c p weight 118 0 0
c p weight -118 1 0
c p weight 119 -1 0
c p weight -119 1 0
c p weight 121 6.12323399573676603586882014729198302312846062338790031898128063403419218957424163818359375E-17 0
c p weight -121 1 0
c p weight 122 1 0
c p weight -122 1 0
c p weight 123 -1 0
c p weight -123 1 0
c p weight 125 -0.86820057764695202084936909159296192228794097900390625 0
c p weight -125 1 0
c p weight 126 -0.496213418776133952103890578655409626662731170654296875 0
c p weight -126 1 0
c p weight 127 -1 0
c p weight -127 1 0
c p weight 129 6.12323399573676603586882014729198302312846062338790031898128063403419218957424163818359375E-17 0
c p weight -129 1 0
c p weight 130 1 0
c p weight -130 1 0
c p weight 131 -1 0
c p weight -131 1 0
c p weight 133 -1 0
c p weight -133 1 0
c p weight 134 3.673940397442059375002259206809000622711899723162043418511757408850826323032379150390625E-16 0
c p weight -134 1 0
c p weight 135 -1 0
c p weight -135 1 0
c p weight 137 1 0
c p weight -137 1 0
c p weight 138 0 0
c p weight -138 1 0
c p weight 139 -1 0
c p weight -139 1 0
c p weight 141 6.12323399573676603586882014729198302312846062338790031898128063403419218957424163818359375E-17 0
c p weight -141 1 0
c p weight 142 1 0
c p weight -142 1 0
c p weight 143 -1 0
c p weight -143 1 0
c p weight 145 -0.58148762303661361006135166462627239525318145751953125 0
c p weight -145 1 0
c p weight 146 -0.81355524966361636440836946349008940160274505615234375 0
c p weight -146 1 0
c p weight 147 -1 0
c p weight -147 1 0
c p weight 149 6.12323399573676603586882014729198302312846062338790031898128063403419218957424163818359375E-17 0
c p weight -149 1 0
c p weight 150 1 0
c p weight -150 1 0
c p weight 151 -1 0
c p weight -151 1 0
c p weight 153 -1 0
c p weight -153 1 0
c p weight 154 3.673940397442059375002259206809000622711899723162043418511757408850826323032379150390625E-16 0
c p weight -154 1 0
c p weight 155 -1 0
c p weight -155 1 0
-3 0
-1 0
5 1 -2 0
5 -1 2 0
-5 1 2 0
-5 -1 -2 0
-6 1 0
-6 2 0
6 -1 -2 0
7 -1 5 0
-7 1 5 0
-8 5 0
7 -8 -1 0
-7 -8 1 0
7 8 1 -5 0
-7 8 -1 -5 0
-9 5 0
7 -9 1 0
-7 -9 -1 0
7 9 -1 -5 0
-7 9 1 -5 0
-10 7 0
-10 5 0
-10 -1 0
10 -7 1 -5 0
11 7 -5 0
11 -7 5 0
-11 7 5 0
-11 -7 -5 0
-12 7 0
-12 5 0
12 -7 -5 0
13 7 -11 0
-13 7 11 0
-14 7 0
13 -14 -11 0
-13 -14 11 0
13 14 -7 11 0
-13 14 -7 -11 0
-15 7 0
13 -15 11 0
-13 -15 -11 0
13 15 -7 -11 0
-13 15 -7 11 0
-16 7 0
-16 11 0
-16 -13 0
16 13 -7 -11 0
17 3 -4 0
17 -3 4 0
-17 3 4 0
-17 -3 -4 0
-18 3 0
-18 4 0
18 -3 -4 0
19 -3 17 0
-19 3 17 0
-20 17 0
19 -20 -3 0
-19 -20 3 0
19 20 3 -17 0
-19 20 -3 -17 0
-21 17 0
19 -21 3 0
-19 -21 -3 0
19 21 -3 -17 0
-19 21 3 -17 0
-22 19 0
-22 17 0
-22 -3 0
22 -19 3 -17 0
23 19 -17 0
23 -19 17 0
-23 19 17 0
-23 -19 -17 0
-24 19 0
-24 17 0
24 -19 -17 0
25 19 -23 0
-25 19 23 0
-26 19 0
25 -26 -23 0
-25 -26 23 0
25 26 -19 23 0
-25 26 -19 -23 0
-27 19 0
25 -27 23 0
-25 -27 -23 0
25 27 -19 -23 0
-25 27 -19 23 0
-28 19 0
-28 23 0
-28 -25 0
28 25 -19 -23 0
29 7 -19 0
29 -7 19 0
-29 7 19 0
-29 -7 -19 0
30 13 -25 0
30 -13 25 0
-30 13 25 0
-30 -13 -25 0
-31 7 0
-31 25 0
-31 19 -13 0
-31 -19 13 0
31 -7 19 13 -25 0
31 -7 -19 -13 -25 0
32 29 -25 0
-32 29 25 0
-33 29 0
32 -33 -25 0
-32 -33 25 0
32 33 -29 25 0
-32 33 -29 -25 0
-34 29 0
32 -34 25 0
-32 -34 -25 0
32 34 -29 -25 0
-32 34 -29 25 0
-35 29 0
-35 25 0
-35 -32 0
35 32 -29 -25 0
36 7 -29 0
36 -7 29 0
-36 7 29 0
-36 -7 -29 0
37 30 -32 0
37 -30 32 0
-37 30 32 0
-37 -30 -32 0
-38 7 0
-38 32 0
-38 29 -30 0
-38 -29 30 0
38 -7 29 30 -32 0
38 -7 -29 -30 -32 0
39 7 -37 0
39 -7 37 0
-39 7 37 0
-39 -7 -37 0
-40 7 0
-40 37 0
40 -7 -37 0
41 -7 39 0
-41 7 39 0
-42 39 0
41 -42 -7 0
-41 -42 7 0
41 42 7 -39 0
-41 42 -7 -39 0
-43 39 0
41 -43 7 0
-41 -43 -7 0
41 43 -7 -39 0
-41 43 7 -39 0
-44 41 0
-44 39 0
-44 -7 0
44 -41 7 -39 0
45 41 -39 0
45 -41 39 0
-45 41 39 0
-45 -41 -39 0
-46 41 0
-46 39 0
46 -41 -39 0
47 41 -45 0
-47 41 45 0
-48 41 0
47 -48 -45 0
-47 -48 45 0
47 48 -41 45 0
-47 48 -41 -45 0
-49 41 0
47 -49 45 0
-47 -49 -45 0
47 49 -41 -45 0
-47 49 -41 45 0
-50 41 0
-50 45 0
-50 -47 0
50 47 -41 -45 0
51 36 -32 0
51 -36 32 0
-51 36 32 0
-51 -36 -32 0
-52 36 0
-52 32 0
52 -36 -32 0
53 -36 51 0
-53 36 51 0
-54 51 0
53 -54 -36 0
-53 -54 36 0
53 54 36 -51 0
-53 54 -36 -51 0
-55 51 0
53 -55 36 0
-53 -55 -36 0
53 55 -36 -51 0
-53 55 36 -51 0
-56 53 0
-56 51 0
-56 -36 0
56 -53 36 -51 0
57 53 -51 0
57 -53 51 0
-57 53 51 0
-57 -53 -51 0
-58 53 0
-58 51 0
58 -53 -51 0
59 53 -57 0
-59 53 57 0
-60 53 0
59 -60 -57 0
-59 -60 57 0
59 60 -53 57 0
-59 60 -53 -57 0
-61 53 0
59 -61 57 0
-59 -61 -57 0
59 61 -53 -57 0
-59 61 -53 57 0
-62 53 0
-62 57 0
-62 -59 0
62 59 -53 -57 0
63 41 -53 0
63 -41 53 0
-63 41 53 0
-63 -41 -53 0
64 47 -59 0
64 -47 59 0
-64 47 59 0
-64 -47 -59 0
-65 41 0
-65 59 0
-65 53 -47 0
-65 -53 47 0
65 -41 53 47 -59 0
65 -41 -53 -47 -59 0
66 63 -59 0
-66 63 59 0
-67 63 0
66 -67 -59 0
-66 -67 59 0
66 67 -63 59 0
-66 67 -63 -59 0
-68 63 0
66 -68 59 0
-66 -68 -59 0
66 68 -63 -59 0
-66 68 -63 59 0
-69 63 0
-69 59 0
-69 -66 0
69 66 -63 -59 0
70 41 -63 0
70 -41 63 0
-70 41 63 0
-70 -41 -63 0
71 64 -66 0
71 -64 66 0
-71 64 66 0
-71 -64 -66 0
-72 41 0
-72 66 0
-72 63 -64 0
-72 -63 64 0
72 -41 63 64 -66 0
72 -41 -63 -64 -66 0
73 41 -71 0
-73 41 71 0
-74 41 0
73 -74 -71 0
-73 -74 71 0
73 74 -41 71 0
-73 74 -41 -71 0
-75 41 0
73 -75 71 0
-73 -75 -71 0
73 75 -41 -71 0
-73 75 -41 71 0
-76 41 0
-76 71 0
-76 -73 0
76 73 -41 -71 0
77 -41 73 0
-77 41 73 0
-78 73 0
77 -78 -41 0
-77 -78 41 0
77 78 41 -73 0
-77 78 -41 -73 0
-79 73 0
77 -79 41 0
-77 -79 -41 0
77 79 -41 -73 0
-77 79 41 -73 0
-80 77 0
-80 73 0
-80 -41 0
80 -77 41 -73 0
81 77 -73 0
-81 77 73 0
-82 77 0
81 -82 -73 0
-81 -82 73 0
81 82 -77 73 0
-81 82 -77 -73 0
-83 77 0
81 -83 73 0
-81 -83 -73 0
81 83 -77 -73 0
-81 83 -77 73 0
-84 77 0
-84 73 0
-84 -81 0
84 81 -77 -73 0
85 -77 81 0
-85 77 81 0
-86 81 0
85 -86 -77 0
-85 -86 77 0
85 86 77 -81 0
-85 86 -77 -81 0
-87 81 0
85 -87 77 0
-85 -87 -77 0
85 87 -77 -81 0
-85 87 77 -81 0
-88 85 0
-88 81 0
-88 -77 0
88 -85 77 -81 0
89 85 -81 0
-89 85 81 0
-90 85 0
89 -90 -81 0
-89 -90 81 0
89 90 -85 81 0
-89 90 -85 -81 0
-91 85 0
89 -91 81 0
-89 -91 -81 0
89 91 -85 -81 0
-89 91 -85 81 0
-92 85 0
-92 81 0
-92 -89 0
92 89 -85 -81 0
93 70 -66 0
-93 70 66 0
-94 70 0
93 -94 -66 0
-93 -94 66 0
93 94 -70 66 0
-93 94 -70 -66 0
-95 70 0
93 -95 66 0
-93 -95 -66 0
93 95 -70 -66 0
-93 95 -70 66 0
-96 70 0
-96 66 0
-96 -93 0
96 93 -70 -66 0
97 -70 93 0
-97 70 93 0
-98 93 0
97 -98 -70 0
-97 -98 70 0
97 98 70 -93 0
-97 98 -70 -93 0
-99 93 0
97 -99 70 0
-97 -99 -70 0
97 99 -70 -93 0
-97 99 70 -93 0
-100 97 0
-100 93 0
-100 -70 0
100 -97 70 -93 0
101 97 -93 0
-101 97 93 0
-102 97 0
101 -102 -93 0
-101 -102 93 0
101 102 -97 93 0
-101 102 -97 -93 0
-103 97 0
101 -103 93 0
-101 -103 -93 0
101 103 -97 -93 0
-101 103 -97 93 0
-104 97 0
-104 93 0
-104 -101 0
104 101 -97 -93 0
105 -97 101 0
-105 97 101 0
-106 101 0
105 -106 -97 0
-105 -106 97 0
105 106 97 -101 0
-105 106 -97 -101 0
-107 101 0
105 -107 97 0
-105 -107 -97 0
105 107 -97 -101 0
-105 107 97 -101 0
-108 105 0
-108 101 0
-108 -97 0
108 -105 97 -101 0
109 105 -101 0
-109 105 101 0
-110 105 0
109 -110 -101 0
-109 -110 101 0
109 110 -105 101 0
-109 110 -105 -101 0
-111 105 0
109 -111 101 0
-109 -111 -101 0
109 111 -105 -101 0
-109 111 -105 101 0
-112 105 0
-112 101 0
-112 -109 0
112 109 -105 -101 0
113 85 -105 0
113 -85 105 0
-113 85 105 0
-113 -85 -105 0
114 89 -109 0
114 -89 109 0
-114 89 109 0
-114 -89 -109 0
-115 85 0
-115 109 0
-115 105 -89 0
-115 -105 89 0
115 -85 105 89 -109 0
115 -85 -105 -89 -109 0
116 85 -114 0
-116 85 114 0
-117 85 0
116 -117 -114 0
-116 -117 114 0
116 117 -85 114 0
-116 117 -85 -114 0
-118 85 0
116 -118 114 0
-116 -118 -114 0
116 118 -85 -114 0
-116 118 -85 114 0
-119 85 0
-119 114 0
-119 -116 0
119 116 -85 -114 0
120 -85 116 0
-120 85 116 0
-121 116 0
120 -121 -85 0
-120 -121 85 0
120 121 85 -116 0
-120 121 -85 -116 0
-122 116 0
120 -122 85 0
-120 -122 -85 0
120 122 -85 -116 0
-120 122 85 -116 0
-123 120 0
-123 116 0
-123 -85 0
123 -120 85 -116 0
124 120 -116 0
-124 120 116 0
-125 120 0
124 -125 -116 0
-124 -125 116 0
124 125 -120 116 0
-124 125 -120 -116 0
-126 120 0
124 -126 116 0
-124 -126 -116 0
124 126 -120 -116 0
-124 126 -120 116 0
-127 120 0
-127 116 0
-127 -124 0
127 124 -120 -116 0
128 -120 124 0
-128 120 124 0
-129 124 0
128 -129 -120 0
-128 -129 120 0
128 129 120 -124 0
-128 129 -120 -124 0
-130 124 0
128 -130 120 0
-128 -130 -120 0
128 130 -120 -124 0
-128 130 120 -124 0
-131 128 0
-131 124 0
-131 -120 0
131 -128 120 -124 0
132 128 -124 0
-132 128 124 0
-133 128 0
132 -133 -124 0
-132 -133 124 0
132 133 -128 124 0
-132 133 -128 -124 0
-134 128 0
132 -134 124 0
-132 -134 -124 0
132 134 -128 -124 0
-132 134 -128 124 0
-135 128 0
-135 124 0
-135 -132 0
135 132 -128 -124 0
136 113 -109 0
-136 113 109 0
-137 113 0
136 -137 -109 0
-136 -137 109 0
136 137 -113 109 0
-136 137 -113 -109 0
-138 113 0
136 -138 109 0
-136 -138 -109 0
136 138 -113 -109 0
-136 138 -113 109 0
-139 113 0
-139 109 0
-139 -136 0
139 136 -113 -109 0
140 -113 136 0
-140 113 136 0
-141 136 0
140 -141 -113 0
-140 -141 113 0
140 141 113 -136 0
-140 141 -113 -136 0
-142 136 0
140 -142 113 0
-140 -142 -113 0
140 142 -113 -136 0
-140 142 113 -136 0
-143 140 0
-143 136 0
-143 -113 0
143 -140 113 -136 0
144 140 -136 0
-144 140 136 0
-145 140 0
144 -145 -136 0
-144 -145 136 0
144 145 -140 136 0
-144 145 -140 -136 0
-146 140 0
144 -146 136 0
-144 -146 -136 0
144 146 -140 -136 0
-144 146 -140 136 0
-147 140 0
-147 136 0
-147 -144 0
147 144 -140 -136 0
148 -140 144 0
-148 140 144 0
-149 144 0
148 -149 -140 0
-148 -149 140 0
148 149 140 -144 0
-148 149 -140 -144 0
-150 144 0
148 -150 140 0
-148 -150 -140 0
148 150 -140 -144 0
-148 150 140 -144 0
-151 148 0
-151 144 0
-151 -140 0
151 -148 140 -144 0
152 148 -144 0
-152 148 144 0
-153 148 0
152 -153 -144 0
-152 -153 144 0
152 153 -148 144 0
-152 153 -148 -144 0
-154 148 0
152 -154 144 0
-152 -154 -144 0
152 154 -148 -144 0
-152 154 -148 144 0
-155 148 0
-155 144 0
-155 -152 0
155 152 -148 -144 0
-128 0
-148 0
-152 0
